(define-fun T ((%init Bool) ($z$0 Real) ($NN002$0 Bool) ($NN001$0 Bool) ($H~1.X$0 Bool) ($H~1.Y$0 Bool) ($H~2.X$0 Bool) ($H~2.Y$0 Bool) ($z$1 Real) ($NN002$1 Bool) ($NN001$1 Bool) ($H~1.X$1 Bool) ($H~1.Y$1 Bool) ($H~2.X$1 Bool) ($H~2.Y$1 Bool)) Bool (and (= $NN002$1 $H~1.Y$1) (= $NN001$1 $H~2.Y$1) (= $H~1.X$1 (>= $z$1 (- 0 (/ 2 10)))) (= $H~1.Y$1 (ite %init $H~1.X$1 (and $H~1.X$1 $H~1.Y$0))) (= $H~2.X$1 (<= $z$1 (/ 11 10))) (= $H~2.Y$1 (ite %init $H~2.X$1 (and $H~2.X$1 $H~2.Y$0)))))
(declare-fun %init () Bool)
(declare-fun $z$~1 () Real)
(declare-fun $NN002$~1 () Bool)
(declare-fun $NN001$~1 () Bool)
(declare-fun $H~1.X$~1 () Bool)
(declare-fun $H~1.Y$~1 () Bool)
(declare-fun $H~2.X$~1 () Bool)
(declare-fun $H~2.Y$~1 () Bool)
(declare-fun $z$2 () Real)
(declare-fun $NN002$2 () Bool)
(declare-fun $NN001$2 () Bool)
(declare-fun $H~1.X$2 () Bool)
(declare-fun $H~1.Y$2 () Bool)
(declare-fun $H~2.X$2 () Bool)
(declare-fun $H~2.Y$2 () Bool)
(assert (and (T %init $z$~1 $NN002$~1 $NN001$~1 $H~1.X$~1 $H~1.Y$~1 $H~2.X$~1 $H~2.Y$~1 $z$2 $NN002$2 $NN001$2 $H~1.X$2 $H~1.Y$2 $H~2.X$2 $H~2.Y$2) (and $NN002$2 $NN001$2)))
